(set-logic QF_S)
(declare-fun var0 () Int)
(declare-fun var1 () String)
(declare-fun var2 () Int)
(declare-fun var3 () Int)
(declare-fun var4 () Bool)
(declare-fun var5 () String)
(declare-fun var6 () Int)
(declare-fun var7 () String)
(declare-fun var8 () String)
(assert (str.contains (str.at "B*R" var0) (str.substr var1 var2 var3)))
(assert (not var4))
(assert (str.contains (str.replace (str.at var5 var6) (str.at var7 var0) (str.replace "=Y" var8 var1)) (str.at (str.replace var7 var8 var7) (str.len var5))))
(assert (str.prefixof (str.substr var8 var2 var0) (str.replace var1 var8 var8)))
(check-sat)